5 5
2 61 0 61 1 40 4 20 3 42
3 7 4 79 0 73 1 68 2 31
4 87 0 70 2 92 1 76 3 47
0 51 3 58 2 22 1 24 4 34
1 63 4 60 0 19 3 24 2 64
-1
0 3 5
0 1 3 5
0 1 3 5
0 3 5
0 2 3 4 5
-2
196 313
9 251 402
129 319 480
165 218
124 154 187 278

433 8
15 11 1 7 22
20 18 2 13 8
0 17 12 24 9
5 16 23 4 14
10 6 19 21 3
